
n_res = 6;
rcap = [50, 53, 55, 55, 638, 614];
rtype = [1, 1, 1, 1, 2, 2];
n_tasks = 50;
modes =  [{1, 2, 3, 4, 5, 6}, {7, 8, 9, 10, 11, 12}, {13, 14, 15, 16, 17, 18}, {19, 20, 21, 22, 23, 24}, {25, 26, 27, 28, 29, 30}, {31, 32, 33, 34, 35, 36}, {37, 38, 39, 40, 41, 42}, {43, 44, 45, 46, 47, 48}, {49, 50, 51, 52, 53, 54}, {55, 56, 57, 58, 59, 60}, {61, 62, 63, 64, 65, 66}, {67, 68, 69, 70, 71, 72}, {73, 74, 75, 76, 77, 78}, {79, 80, 81, 82, 83, 84}, {85, 86, 87, 88, 89, 90}, {91, 92, 93, 94, 95, 96}, {97, 98, 99, 100, 101, 102}, {103, 104, 105, 106, 107, 108}, {109, 110, 111, 112, 113, 114}, {115, 116, 117, 118, 119, 120}, {121, 122, 123, 124, 125, 126}, {127, 128, 129, 130, 131, 132}, {133, 134, 135, 136, 137, 138}, {139, 140, 141, 142, 143, 144}, {145, 146, 147, 148, 149, 150}, {151, 152, 153, 154, 155, 156}, {157, 158, 159, 160, 161, 162}, {163, 164, 165, 166, 167, 168}, {169, 170, 171, 172, 173, 174}, {175, 176, 177, 178, 179, 180}, {181, 182, 183, 184, 185, 186}, {187, 188, 189, 190, 191, 192}, {193, 194, 195, 196, 197, 198}, {199, 200, 201, 202, 203, 204}, {205, 206, 207, 208, 209, 210}, {211, 212, 213, 214, 215, 216}, {217, 218, 219, 220, 221, 222}, {223, 224, 225, 226, 227, 228}, {229, 230, 231, 232, 233, 234}, {235, 236, 237, 238, 239, 240}, {241, 242, 243, 244, 245, 246}, {247, 248, 249, 250, 251, 252}, {253, 254, 255, 256, 257, 258}, {259, 260, 261, 262, 263, 264}, {265, 266, 267, 268, 269, 270}, {271, 272, 273, 274, 275, 276}, {277, 278, 279, 280, 281, 282}, {283, 284, 285, 286, 287, 288}, {289, 290, 291, 292, 293, 294}, {295, 296, 297, 298, 299, 300}];
succ =  [{14, 8, 2}, {19, 12, 6}, {19, 14, 6}, {12, 6}, {19, 6}, {26, 13, 11, 9}, {23, 20, 19, 15, 13}, {13, 11}, {24, 23, 22, 21, 20, 17, 15}, {20, 16, 13}, {29, 20, 17, 16, 15}, {24, 18, 16, 15}, {25, 24, 22, 21, 17}, {24, 22, 17, 15}, {32, 31, 27, 25}, {33, 28, 22}, {34, 33, 31, 27}, {32, 31, 30, 25}, {27, 25}, {34, 33, 32, 31, 30}, {34, 31, 27}, {34, 32, 31, 30}, {33, 29, 28}, {29, 27}, {38, 34, 33}, {38, 33, 30}, {28}, {38, 30}, {38, 30}, {42, 40, 39, 36, 35}, {42, 40, 39, 38, 35}, {42, 40, 39, 36, 35}, {42, 39, 36, 35}, {46, 42, 40, 39, 37}, {46, 37}, {37}, {49, 45, 41}, {50, 49, 48, 44}, {49, 44, 43}, {41}, {50, 48, 44}, {49, 43}, {48, 47}, {47}, {48}, {47}, {}, {}, {}, {}];
n_opt = 300;
dur = [6, 7, 11, 17, 26, 29, 4, 7, 9, 16, 21, 30, 4, 10, 12, 13, 14, 19, 3, 16, 18, 19, 22, 27, 2, 3, 6, 19, 21, 22, 3, 4, 12, 13, 21, 26, 3, 7, 8, 14, 25, 29, 3, 5, 6, 9, 12, 19, 1, 9, 18, 22, 24, 29, 2, 4, 18, 19, 20, 29, 3, 4, 10, 16, 23, 30, 3, 12, 16, 17, 18, 24, 1, 3, 10, 14, 21, 22, 8, 14, 17, 18, 23, 30, 1, 5, 8, 15, 19, 25, 4, 11, 12, 13, 19, 30, 2, 3, 6, 12, 24, 27, 1, 6, 9, 21, 22, 28, 3, 4, 6, 10, 11, 30, 6, 9, 13, 19, 20, 24, 2, 3, 9, 14, 15, 21, 2, 6, 8, 19, 28, 29, 3, 4, 11, 14, 20, 30, 2, 7, 13, 14, 17, 30, 3, 7, 9, 10, 26, 29, 4, 14, 15, 17, 18, 27, 2, 4, 5, 12, 15, 25, 13, 14, 19, 24, 27, 29, 5, 8, 9, 17, 19, 25, 2, 3, 10, 20, 23, 26, 3, 4, 7, 14, 16, 17, 5, 8, 13, 18, 29, 30, 10, 14, 15, 16, 21, 28, 8, 9, 15, 16, 26, 30, 1, 5, 8, 9, 15, 18, 4, 6, 14, 17, 21, 30, 3, 6, 17, 20, 22, 28, 3, 6, 7, 13, 25, 26, 1, 7, 10, 19, 23, 27, 3, 10, 11, 16, 24, 26, 4, 14, 15, 17, 25, 29, 2, 4, 16, 18, 20, 27, 8, 16, 19, 22, 24, 30, 1, 3, 12, 19, 27, 29, 2, 14, 18, 24, 25, 26, 1, 3, 4, 7, 12, 28, 2, 5, 7, 8, 19, 20, 3, 4, 6, 16, 23, 24, 8, 9, 11, 23, 28, 29, 5, 7, 13, 18, 20, 28];
rreq = [|21, 18, 16, 13, 11, 8, 21, 17, 13, 8, 4, 1, 1, 1, 1, 1, 1, 1, 22, 20, 18, 17, 16, 15, 15, 12, 11, 10, 6, 5, 23, 18, 18, 11, 8, 5, 23, 23, 22, 20, 19, 18, 17, 17, 17, 17, 16, 16, 14, 10, 10, 8, 4, 3, 13, 13, 13, 13, 12, 12, 28, 28, 28, 28, 28, 28, 18, 18, 14, 9, 7, 6, 17, 15, 10, 10, 6, 4, 8, 8, 8, 8, 8, 8, 20, 20, 20, 20, 19, 19, 22, 21, 20, 16, 15, 12, 21, 19, 15, 14, 9, 9, 21, 20, 17, 14, 13, 11, 17, 14, 12, 9, 4, 4, 22, 20, 20, 19, 18, 18, 25, 23, 21, 18, 17, 15, 22, 21, 20, 19, 18, 17, 9, 9, 7, 6, 4, 2, 12, 11, 9, 7, 5, 2, 21, 19, 14, 11, 7, 5, 24, 23, 23, 23, 22, 21, 11, 9, 8, 8, 6, 6, 24, 24, 20, 18, 18, 16, 14, 13, 13, 11, 8, 8, 27, 24, 21, 16, 12, 10, 11, 10, 8, 7, 7, 6, 13, 11, 11, 10, 9, 8, 14, 13, 10, 8, 8, 5, 22, 18, 16, 13, 11, 8, 14, 11, 10, 9, 7, 7, 18, 16, 13, 11, 9, 6, 17, 14, 14, 11, 6, 3, 19, 16, 11, 11, 8, 4, 24, 20, 20, 15, 13, 8, 19, 19, 15, 15, 11, 10, 21, 20, 20, 20, 19, 19, 25, 20, 18, 15, 12, 11, 20, 20, 20, 20, 20, 20, 14, 13, 13, 13, 12, 12, 19, 18, 18, 18, 18, 18, 25, 22, 21, 18, 16, 14, 14, 13, 13, 13, 11, 11, 27, 23, 21, 19, 16, 12, 23, 23, 20, 17, 17, 15, 20, 14, 12, 11, 6, 2
 |13, 12, 10, 7, 6, 5, 29, 25, 19, 15, 10, 9, 3, 2, 2, 2, 2, 2, 25, 21, 20, 19, 17, 14, 18, 15, 13, 11, 6, 5, 20, 19, 19, 18, 18, 17, 24, 20, 16, 15, 10, 5, 9, 7, 7, 5, 5, 4, 16, 15, 14, 14, 14, 13, 12, 11, 9, 9, 7, 5, 7, 6, 5, 3, 3, 1, 27, 26, 26, 26, 26, 26, 17, 16, 15, 13, 12, 11, 27, 27, 27, 26, 26, 26, 25, 21, 21, 19, 16, 14, 16, 12, 12, 7, 5, 3, 15, 14, 12, 10, 9, 7, 28, 26, 23, 21, 17, 14, 19, 18, 13, 12, 6, 2, 19, 17, 16, 12, 11, 10, 12, 10, 10, 8, 7, 6, 19, 17, 13, 10, 6, 3, 25, 23, 20, 17, 15, 13, 18, 17, 16, 14, 11, 10, 8, 8, 7, 5, 4, 4, 20, 18, 14, 11, 8, 8, 24, 23, 21, 20, 20, 19, 12, 10, 9, 8, 4, 3, 7, 6, 4, 4, 2, 1, 27, 25, 23, 20, 18, 16, 23, 18, 16, 10, 8, 5, 10, 9, 8, 5, 4, 3, 11, 10, 10, 7, 7, 5, 22, 22, 21, 20, 19, 19, 22, 16, 14, 13, 9, 4, 26, 21, 18, 15, 9, 8, 18, 16, 13, 11, 6, 3, 23, 20, 18, 15, 13, 12, 2, 2, 2, 2, 2, 2, 23, 23, 20, 17, 16, 15, 25, 20, 20, 17, 15, 11, 29, 26, 24, 23, 21, 18, 19, 17, 16, 14, 13, 11, 19, 17, 15, 12, 10, 10, 26, 25, 24, 21, 21, 19, 6, 4, 4, 4, 2, 2, 19, 19, 19, 19, 19, 19, 5, 5, 5, 5, 5, 5, 12, 11, 11, 11, 10, 9, 18, 15, 13, 11, 8, 7
 |4, 3, 3, 3, 3, 3, 20, 17, 15, 10, 7, 4, 27, 21, 17, 14, 11, 10, 24, 22, 22, 21, 20, 20, 6, 6, 6, 6, 5, 5, 8, 6, 5, 5, 3, 1, 20, 18, 13, 10, 4, 3, 6, 6, 6, 5, 4, 4, 22, 19, 13, 12, 8, 6, 25, 22, 22, 19, 19, 17, 29, 25, 25, 23, 22, 19, 21, 18, 15, 9, 9, 5, 19, 17, 17, 17, 16, 15, 27, 22, 19, 14, 13, 8, 13, 11, 10, 9, 8, 7, 21, 20, 16, 11, 8, 6, 18, 18, 17, 17, 15, 15, 15, 14, 13, 12, 11, 10, 18, 16, 12, 11, 7, 3, 21, 18, 15, 13, 12, 10, 23, 20, 17, 15, 10, 5, 28, 25, 23, 21, 21, 18, 12, 9, 9, 8, 6, 5, 25, 22, 22, 20, 20, 18, 19, 15, 15, 11, 5, 5, 24, 20, 20, 18, 16, 13, 17, 15, 14, 11, 9, 5, 2, 1, 1, 1, 1, 1, 16, 15, 14, 13, 13, 12, 17, 17, 15, 11, 9, 6, 26, 23, 18, 14, 8, 7, 16, 14, 14, 12, 9, 9, 19, 15, 14, 12, 8, 5, 28, 27, 27, 26, 25, 25, 15, 15, 15, 15, 15, 15, 25, 24, 22, 21, 21, 19, 14, 14, 14, 13, 13, 12, 21, 20, 19, 19, 16, 16, 16, 15, 12, 9, 7, 3, 8, 7, 7, 7, 5, 5, 29, 29, 28, 27, 26, 25, 26, 24, 16, 14, 8, 6, 20, 20, 16, 13, 10, 5, 13, 12, 11, 10, 9, 7, 21, 17, 13, 11, 8, 6, 19, 19, 19, 19, 19, 19, 7, 7, 6, 6, 5, 5, 24, 22, 22, 18, 15, 14, 17, 16, 16, 16, 16, 16, 12, 12, 12, 11, 11, 10
 |14, 14, 14, 13, 12, 12, 19, 18, 18, 18, 17, 17, 24, 23, 23, 23, 23, 23, 29, 26, 25, 22, 22, 19, 22, 22, 21, 19, 18, 17, 18, 15, 13, 11, 6, 6, 24, 21, 20, 20, 18, 17, 23, 23, 23, 22, 22, 22, 27, 27, 25, 22, 19, 17, 23, 21, 20, 18, 17, 17, 25, 23, 19, 16, 10, 9, 27, 22, 19, 13, 6, 2, 25, 18, 14, 14, 10, 4, 20, 19, 18, 16, 16, 14, 21, 16, 12, 11, 7, 3, 11, 9, 8, 7, 6, 5, 15, 14, 12, 11, 11, 9, 25, 24, 23, 22, 21, 20, 21, 19, 14, 12, 7, 5, 18, 17, 13, 12, 10, 8, 24, 24, 22, 22, 19, 19, 18, 14, 13, 13, 9, 9, 25, 24, 22, 19, 16, 13, 27, 25, 23, 20, 17, 17, 26, 23, 23, 19, 16, 11, 10, 10, 10, 10, 10, 10, 24, 24, 20, 18, 18, 14, 28, 21, 20, 16, 15, 9, 12, 11, 11, 11, 10, 10, 27, 26, 25, 22, 21, 19, 25, 22, 15, 13, 6, 4, 22, 21, 21, 20, 20, 20, 24, 23, 23, 22, 21, 19, 25, 22, 14, 10, 6, 1, 18, 13, 12, 11, 6, 6, 20, 18, 16, 12, 7, 5, 27, 26, 23, 20, 18, 18, 11, 10, 9, 8, 8, 7, 13, 12, 12, 11, 9, 9, 25, 22, 17, 11, 7, 3, 26, 26, 26, 25, 24, 24, 21, 20, 19, 19, 18, 17, 18, 17, 17, 16, 13, 12, 2, 2, 2, 2, 2, 2, 18, 15, 13, 10, 7, 4, 19, 18, 16, 15, 14, 14, 9, 8, 8, 7, 7, 7, 28, 24, 22, 20, 19, 16, 2, 1, 1, 1, 1, 1, 24, 23, 20, 18, 18, 15
 |21, 20, 12, 10, 8, 3, 23, 18, 13, 13, 5, 2, 27, 23, 21, 18, 15, 12, 16, 11, 9, 7, 4, 1, 17, 15, 12, 12, 10, 7, 18, 14, 14, 11, 5, 4, 20, 19, 17, 12, 11, 9, 24, 24, 21, 16, 15, 12, 28, 28, 28, 28, 28, 28, 2, 2, 2, 2, 1, 1, 13, 9, 8, 6, 4, 1, 27, 20, 17, 16, 9, 9, 22, 20, 20, 20, 18, 18, 9, 8, 8, 7, 6, 6, 21, 21, 16, 15, 12, 8, 23, 18, 15, 12, 9, 7, 26, 22, 17, 12, 11, 7, 30, 29, 28, 28, 28, 27, 9, 7, 7, 4, 2, 1, 17, 17, 15, 13, 11, 10, 15, 15, 15, 15, 15, 15, 21, 18, 12, 9, 6, 2, 23, 20, 16, 16, 12, 9, 20, 19, 17, 16, 14, 12, 24, 24, 23, 21, 21, 20, 6, 6, 6, 5, 5, 5, 24, 23, 22, 20, 19, 16, 27, 26, 23, 21, 19, 19, 21, 20, 16, 15, 14, 11, 29, 25, 23, 18, 12, 9, 11, 9, 8, 7, 7, 6, 25, 21, 18, 12, 12, 6, 15, 14, 13, 10, 10, 9, 23, 19, 18, 11, 9, 5, 10, 10, 10, 10, 10, 10, 22, 21, 21, 21, 20, 20, 28, 27, 23, 23, 19, 19, 21, 18, 16, 13, 10, 3, 17, 17, 12, 9, 6, 5, 18, 17, 14, 14, 11, 11, 26, 24, 20, 18, 14, 13, 11, 10, 10, 9, 9, 9, 20, 20, 17, 15, 14, 12, 23, 22, 22, 22, 22, 22, 5, 4, 4, 4, 4, 4, 21, 21, 16, 15, 12, 11, 25, 24, 24, 23, 22, 21, 26, 25, 24, 23, 23, 22, 24, 24, 23, 21, 20, 20, 12, 9, 8, 7, 6, 4
 |13, 11, 10, 9, 9, 7, 21, 20, 18, 16, 13, 12, 11, 10, 9, 9, 9, 8, 27, 23, 19, 15, 7, 2, 13, 10, 10, 9, 8, 7, 14, 13, 13, 13, 13, 13, 23, 22, 21, 20, 18, 18, 7, 6, 6, 6, 5, 5, 2, 2, 2, 1, 1, 1, 7, 6, 6, 6, 6, 6, 26, 21, 20, 13, 11, 9, 27, 27, 27, 27, 27, 27, 19, 18, 16, 15, 13, 12, 7, 7, 7, 6, 6, 5, 21, 19, 13, 12, 10, 5, 27, 24, 19, 17, 13, 11, 23, 23, 22, 22, 22, 21, 19, 18, 15, 15, 13, 10, 30, 22, 21, 13, 10, 6, 14, 12, 11, 11, 8, 6, 27, 23, 17, 13, 10, 6, 13, 12, 10, 8, 8, 6, 20, 17, 16, 14, 11, 11, 12, 11, 7, 6, 4, 3, 25, 21, 20, 20, 18, 16, 22, 21, 20, 20, 19, 18, 22, 22, 19, 18, 17, 14, 20, 18, 16, 11, 9, 8, 25, 22, 20, 20, 18, 15, 23, 21, 21, 20, 19, 18, 3, 3, 3, 3, 3, 3, 10, 9, 9, 9, 9, 9, 23, 20, 17, 17, 12, 9, 28, 23, 22, 19, 16, 14, 27, 25, 25, 24, 21, 21, 21, 19, 17, 14, 13, 12, 16, 16, 16, 15, 15, 15, 18, 16, 15, 12, 12, 9, 26, 20, 19, 14, 12, 7, 29, 24, 24, 22, 20, 18, 3, 3, 3, 3, 2, 2, 25, 22, 16, 12, 10, 7, 15, 13, 10, 8, 8, 5, 11, 10, 9, 7, 6, 5, 28, 23, 17, 14, 9, 1, 12, 12, 12, 11, 10, 10, 16, 16, 13, 9, 9, 7, 20, 20, 20, 20, 20, 20, 12, 11, 11, 11, 11, 11, 27, 25, 23, 21, 21, 18|];